NAME : gr96.tsp
TYPE : TOUR
DIMENSION : 96
TOUR_LENGTH : 560.6148094591473
TOUR_SECTION
1
30
31
29
2
3
4
5
6
8
7
9
10
12
13
14
15
16
17
20
18
19
21
25
24
23
22
26
28
27
65
96
94
95
93
92
77
78
88
89
90
91
87
86
85
84
74
73
75
76
68
67
66
64
63
62
61
60
59
71
72
70
82
81
83
80
79
69
57
56
58
54
55
51
42
41
40
39
38
37
36
32
35
34
33
44
45
43
49
50
52
53
48
47
46
11
-1
